100
150
99
97
96
95
94
93
92
92
92
91
90
88
88
88
86
86
86
86
85
85
85
85
85
83
83
83
82
81
81
80
79
78
76
76
75
75
74
74
74
74
74
73
73
72
71
70
70
70
69
68
67
66
65
65
64
64
63
61
61
60
59
58
58
58
57
57
57
56
56
56
55
54
54
53
53
53
53
50
48
48
48
46
46
46
46
45
43
43
42
41
40
39
37
35
35
34
34
31
31
30
